100 152836
61 63 67 86 22 39 18 62 46 95 100 41 72 34 80 19 64 79 96 21 33 88 45 71 70 91 78 92 83 98 59 53 28 15 32 68 29 57 84 69 51 50 20 14 11 55 48 94 2 76 81 36 10 99 27 42 56 43 97 25 24 77 44 47 60 89 87 12 82 1 5 7 52 23 75 54 35 49 13 40 65 8 73 17 30 90 93 4 37 74 16 38 66 3 58 6 85 31 9 26 
